 &input
   fildyn='PH.dynG', zasr='zero-dim', flfrc='FC.fc'
 /
