phonons at gamma
&inputph
   outdir          = '../relax/pwscf_output'
   prefix          = 'pwscf'
   fildyn          = 'PH.dynG'
   ldisp           = .true.
   tr2_ph          = 1.0d-12,
   nq1             = 1
   nq2             = 1
   nq3             = 1
/
